c Problem Statistics
c Number of variables: 120
c Number of clauses: 300
c Parse time (sec.) : 0.00
c
p cnf 120 76
-100 0
62 0
4 0
35 0
42 0
19 0
69 0
47 0
6 0
31 0
21 0
68 0
58 0
40 0
27 0
79 0
45 0
53 0
59 0
34 0
80 0
61 0
65 0
66 0
67 0
70 0
73 0
81 0
86 0
89 0
90 0
91 0
94 0
95 0
101 0
103 0
104 0
107 0
110 0
112 0
114 0
117 0
63 0
71 0
72 0
74 0
75 0
76 0
77 0
78 0
83 0
84 0
85 0
87 0
92 0
93 0
96 0
97 0
98 0
105 0
106 0
118 0
119 0
120 0
64 0
82 0
88 0
99 0
102 0
108 0
109 0
111 0
113 0
115 0
116 0
7 32 55 2 0
c restarts              : 60
c conflicts             : 0              (-nan /sec)
c decisions             : 2418           (0.00 % random) (inf /sec)
c propagations          : 10672          (inf /sec)
c conflict literals     : 0              (-nan % deleted)
c CPU time (sec.): 0
